NAME : ulysses22.9587.tour
COMMENT : Cost = 4628_9587
COMMENT : Found by LKH [Keld Helsgaun] Thu Nov 16 14:49:50 2017
TYPE : TOUR
DIMENSION : 24
TOUR_SECTION
1
8
18
4
22
17
2
3
24
12
13
14
15
5
6
7
9
10
19
20
21
16
23
11
-1
EOF
